benchmark/results/graph__15-1000-0.10-04_0/graph__15-1000-0.10-04_0_Quinton_Benders_primal_sub.lp
\ This file has been generated by DOcplex
\ ENCODING=ISO-8859-1
\Problem name: Quinton Benders_primal_sub

Maximize
 obj: tau
Subject To
 c1: tau <= 0.001175088132
 c2: y_a0_proc_1 + y_a0_proc_2 - tau = 0
 c3: y_a0_proc_1 <= 0
 c4: y_a0_proc_2 <= 1
 c5: tau <= 0.000938967136
 c6: y_a1_proc_0 + y_a1_proc_1 + y_a1_proc_2 + y_a1_proc_3 - tau = 0
 c7: y_a1_proc_0 <= 1
 c8: y_a1_proc_1 <= 0
 c9: y_a1_proc_2 <= 0
 c10: y_a1_proc_3 <= 0
 c11: tau <= 0.000772200772
 c12: y_a2_proc_0 + y_a2_proc_1 + y_a2_proc_2 + y_a2_proc_3 - tau = 0
 c13: y_a2_proc_0 <= 0
 c14: y_a2_proc_1 <= 0
 c15: y_a2_proc_2 <= 0
 c16: y_a2_proc_3 <= 1
 c17: tau <= 0.001091703057
 c18: y_a3_proc_0 + y_a3_proc_1 + y_a3_proc_2 - tau = 0
 c19: y_a3_proc_0 <= 0
 c20: y_a3_proc_1 <= 0
 c21: y_a3_proc_2 <= 1
 c22: tau <= 0.002150537634
 c23: y_a4_proc_0 + y_a4_proc_1 + y_a4_proc_2 + y_a4_proc_3 - tau = 0
 c24: y_a4_proc_0 <= 0
 c25: y_a4_proc_1 <= 0
 c26: y_a4_proc_2 <= 0
 c27: y_a4_proc_3 <= 1
 c28: tau <= 0.002012072435
 c29: y_a5_proc_0 + y_a5_proc_1 + y_a5_proc_2 - tau = 0
 c30: y_a5_proc_0 <= 1
 c31: y_a5_proc_1 <= 0
 c32: y_a5_proc_2 <= 0
 c33: tau <= 0.001430615165
 c34: y_a6_proc_0 + y_a6_proc_1 + y_a6_proc_2 - tau = 0
 c35: y_a6_proc_0 <= 0
 c36: y_a6_proc_1 <= 1
 c37: y_a6_proc_2 <= 0
 c38: tau <= 0.002145922747
 c39: y_a7_proc_0 + y_a7_proc_2 - tau = 0
 c40: y_a7_proc_0 <= 0
 c41: y_a7_proc_2 <= 1
 c42: tau <= 0.000984251969
 c43: y_a8_proc_1 + y_a8_proc_2 + y_a8_proc_3 - tau = 0
 c44: y_a8_proc_1 <= 0
 c45: y_a8_proc_2 <= 1
 c46: y_a8_proc_3 <= 0
 c47: tau <= 0.002512562814
 c48: y_a9_proc_0 + y_a9_proc_3 - tau = 0
 c49: y_a9_proc_0 <= 0
 c50: y_a9_proc_3 <= 1
 c51: tau <= 0.001127395716
 c52: y_a10_proc_0 + y_a10_proc_1 + y_a10_proc_2 + y_a10_proc_3 - tau = 0
 c53: y_a10_proc_0 <= 0
 c54: y_a10_proc_1 <= 0
 c55: y_a10_proc_2 <= 1
 c56: y_a10_proc_3 <= 0
 c57: tau <= 0.002242152466
 c58: y_a11_proc_0 + y_a11_proc_1 + y_a11_proc_2 + y_a11_proc_3 - tau = 0
 c59: y_a11_proc_0 <= 0
 c60: y_a11_proc_1 <= 0
 c61: y_a11_proc_2 <= 0
 c62: y_a11_proc_3 <= 1
 c63: tau <= 0.001132502831
 c64: y_a12_proc_0 + y_a12_proc_1 + y_a12_proc_2 + y_a12_proc_3 - tau = 0
 c65: y_a12_proc_0 <= 1
 c66: y_a12_proc_1 <= 0
 c67: y_a12_proc_2 <= 0
 c68: y_a12_proc_3 <= 0
 c69: tau <= 0.001567398119
 c70: y_a13_proc_0 + y_a13_proc_2 + y_a13_proc_3 - tau = 0
 c71: y_a13_proc_0 <= 0
 c72: y_a13_proc_2 <= 1
 c73: y_a13_proc_3 <= 0
 c74: tau <= 0.000956937799
 c75: y_a14_proc_0 + y_a14_proc_1 + y_a14_proc_2 + y_a14_proc_3 - tau = 0
 c76: y_a14_proc_0 <= 0
 c77: y_a14_proc_1 <= 1
 c78: y_a14_proc_2 <= 0
 c79: y_a14_proc_3 <= 0
 c80: u_a1 - u_a0 - 941 y_a0_proc_1 - 851 y_a0_proc_2 >= 0
 c81: u_a1 - u_a2 - 841 y_a2_proc_0 - 946 y_a2_proc_1 - 635 y_a2_proc_2
      - 1295 y_a2_proc_3 >= -1
 c82: u_a3 - u_a1 - 1065 y_a1_proc_0 - 1072 y_a1_proc_1 - 1020 y_a1_proc_2
      - 1005 y_a1_proc_3 >= 0
 c83: u_a4 - u_a3 - 1058 y_a3_proc_0 - 1113 y_a3_proc_1 - 916 y_a3_proc_2 >= -1
 c84: u_a0 - u_a5 - 497 y_a5_proc_0 - 621 y_a5_proc_1 - 1112 y_a5_proc_2 >= -2
 c85: u_a2 - u_a6 - 1032 y_a6_proc_0 - 699 y_a6_proc_1 - 724 y_a6_proc_2 >= 0
 c86: u_a0 - u_a7 - 1062 y_a7_proc_0 - 466 y_a7_proc_2 >= -1
 c87: u_a8 - u_a1 - 1065 y_a1_proc_0 - 1072 y_a1_proc_1 - 1020 y_a1_proc_2
      - 1005 y_a1_proc_3 >= 0
 c88: u_a9 - u_a6 - 1032 y_a6_proc_0 - 699 y_a6_proc_1 - 724 y_a6_proc_2 >= -1
 c89: u_a10 - u_a1 - 1065 y_a1_proc_0 - 1072 y_a1_proc_1 - 1020 y_a1_proc_2
      - 1005 y_a1_proc_3 >= 0
 c90: u_a11 - u_a9 - 1092 y_a9_proc_0 - 398 y_a9_proc_3 >= 0
 c91: u_a12 - u_a0 - 941 y_a0_proc_1 - 851 y_a0_proc_2 >= 0
 c92: u_a7 - u_a13 - 877 y_a13_proc_0 - 638 y_a13_proc_2 - 828 y_a13_proc_3 >= 
      0
 c93: u_a5 - u_a14 - 918 y_a14_proc_0 - 1045 y_a14_proc_1 - 1190 y_a14_proc_2
      - 1127 y_a14_proc_3 >= 0
 c94: u_a12 - u_a8 - 1200 y_a8_proc_1 - 1016 y_a8_proc_2 - 1025 y_a8_proc_3 >= 
      0
 c95: u_a8 - u_a9 - 1092 y_a9_proc_0 - 398 y_a9_proc_3 >= 0
 c96: u_a4 - u_a12 - 883 y_a12_proc_0 - 1099 y_a12_proc_1 - 945 y_a12_proc_2
      - 1035 y_a12_proc_3 >= 0
 c97: u_a3 - u_a4 - 1272 y_a4_proc_0 - 1181 y_a4_proc_1 - 917 y_a4_proc_2
      - 465 y_a4_proc_3 >= 0
 c98: u_a13 - u_a3 - 1058 y_a3_proc_0 - 1113 y_a3_proc_1 - 916 y_a3_proc_2 >= 0
 c99: u_a14 - u_a11 - 1153 y_a11_proc_0 - 491 y_a11_proc_1 - 1027 y_a11_proc_2
      - 446 y_a11_proc_3 >= 0
 c100: u_a11 - u_a5 - 497 y_a5_proc_0 - 621 y_a5_proc_1 - 1112 y_a5_proc_2 >= 
       -2
 c101: u_a6 - u_a10 - 868 y_a10_proc_0 - 890 y_a10_proc_1 - 887 y_a10_proc_2
       - 1208 y_a10_proc_3 >= 0
 c102: u_a13 - u_a5 - 497 y_a5_proc_0 - 621 y_a5_proc_1 - 1112 y_a5_proc_2 >= 
       -1
 c103: u_a11 - u_a14 - 918 y_a14_proc_0 - 1045 y_a14_proc_1 - 1190 y_a14_proc_2
       - 1127 y_a14_proc_3 >= -1
 c104: u_a8 - u_a0 - 941 y_a0_proc_1 - 851 y_a0_proc_2 >= 0
 c105: u_a4 - u_a9 - 1092 y_a9_proc_0 - 398 y_a9_proc_3 >= 0
 c106: u_a1 - u_a0 - 851 y_a0_proc_2 >= -2590
 c107: u_a1 - u_a0 - 941 y_a0_proc_1 >= -3885
 c108: u_a0 - u_a1 - 1020 y_a1_proc_2 >= -1
 c109: u_a0 - u_a1 - 1072 y_a1_proc_1 >= -1296
 c110: u_a2 - u_a0 - 851 y_a0_proc_2 >= -2590
 c111: u_a2 - u_a0 - 941 y_a0_proc_1 >= -3885
 c112: u_a0 - u_a2 - 635 y_a2_proc_2 >= -1
 c113: u_a0 - u_a2 - 946 y_a2_proc_1 >= -1296
 c114: u_a3 - u_a0 - 851 y_a0_proc_2 >= 0
 c115: u_a3 - u_a0 - 941 y_a0_proc_1 >= -2590
 c116: u_a0 - u_a3 - 916 y_a3_proc_2 >= -1
 c117: u_a0 - u_a3 - 1113 y_a3_proc_1 >= -2591
 c118: u_a4 - u_a0 - 851 y_a0_proc_2 >= -2590
 c119: u_a4 - u_a0 - 941 y_a0_proc_1 >= -3885
 c120: u_a0 - u_a4 - 917 y_a4_proc_2 >= -1
 c121: u_a0 - u_a4 - 1181 y_a4_proc_1 >= -1296
 c122: u_a5 - u_a0 - 851 y_a0_proc_2 >= -2591
 c123: u_a5 - u_a0 - 941 y_a0_proc_1 >= -3886
 c124: u_a0 - u_a5 - 1112 y_a5_proc_2 >= 0
 c125: u_a0 - u_a5 - 621 y_a5_proc_1 >= -1295
 c126: u_a6 - u_a0 - 851 y_a0_proc_2 >= -2590
 c127: u_a6 - u_a0 - 941 y_a0_proc_1 >= -2590
 c128: u_a0 - u_a6 - 724 y_a6_proc_2 >= -1
 c129: u_a0 - u_a6 - 699 y_a6_proc_1 >= -1
 c130: u_a7 - u_a0 - 851 y_a0_proc_2 >= 0
 c131: u_a0 - u_a7 - 466 y_a7_proc_2 >= -1
 c132: u_a8 - u_a0 - 851 y_a0_proc_2 >= 0
 c133: u_a8 - u_a0 - 941 y_a0_proc_1 >= -2590
 c134: u_a0 - u_a8 - 1016 y_a8_proc_2 >= -1
 c135: u_a0 - u_a8 - 1200 y_a8_proc_1 >= -2591
 c136: u_a10 - u_a0 - 851 y_a0_proc_2 >= 0
 c137: u_a10 - u_a0 - 941 y_a0_proc_1 >= -2590
 c138: u_a0 - u_a10 - 887 y_a10_proc_2 >= -1
 c139: u_a0 - u_a10 - 890 y_a10_proc_1 >= -2591
 c140: u_a11 - u_a0 - 851 y_a0_proc_2 >= -2591
 c141: u_a11 - u_a0 - 941 y_a0_proc_1 >= -3886
 c142: u_a0 - u_a11 - 1027 y_a11_proc_2 >= 0
 c143: u_a0 - u_a11 - 491 y_a11_proc_1 >= -1295
 c144: u_a12 - u_a0 - 851 y_a0_proc_2 >= -2590
 c145: u_a12 - u_a0 - 941 y_a0_proc_1 >= -3885
 c146: u_a0 - u_a12 - 945 y_a12_proc_2 >= -1
 c147: u_a0 - u_a12 - 1099 y_a12_proc_1 >= -1296
 c148: u_a13 - u_a0 - 851 y_a0_proc_2 >= 0
 c149: u_a0 - u_a13 - 638 y_a13_proc_2 >= -1
 c150: u_a14 - u_a0 - 851 y_a0_proc_2 >= -2591
 c151: u_a14 - u_a0 - 941 y_a0_proc_1 >= -2591
 c152: u_a0 - u_a14 - 1190 y_a14_proc_2 >= 0
 c153: u_a0 - u_a14 - 1045 y_a14_proc_1 >= 0
 c154: u_a2 - u_a1 - 1065 y_a1_proc_0 >= -2590
 c155: u_a2 - u_a1 - 1020 y_a1_proc_2 >= -3885
 c156: u_a2 - u_a1 - 1005 y_a1_proc_3 >= -2590
 c157: u_a2 - u_a1 - 1072 y_a1_proc_1 >= -3885
 c158: u_a1 - u_a2 - 841 y_a2_proc_0 >= -1
 c159: u_a1 - u_a2 - 635 y_a2_proc_2 >= -1296
 c160: u_a1 - u_a2 - 1295 y_a2_proc_3 >= -1
 c161: u_a1 - u_a2 - 946 y_a2_proc_1 >= -1296
 c162: u_a3 - u_a1 - 1065 y_a1_proc_0 >= -2590
 c163: u_a3 - u_a1 - 1020 y_a1_proc_2 >= -2590
 c164: u_a3 - u_a1 - 1072 y_a1_proc_1 >= -3885
 c165: u_a1 - u_a3 - 1058 y_a3_proc_0 >= -1
 c166: u_a1 - u_a3 - 916 y_a3_proc_2 >= -1
 c167: u_a1 - u_a3 - 1113 y_a3_proc_1 >= -1296
 c168: u_a4 - u_a1 - 1065 y_a1_proc_0 >= -2590
 c169: u_a4 - u_a1 - 1020 y_a1_proc_2 >= -3885
 c170: u_a4 - u_a1 - 1005 y_a1_proc_3 >= -2590
 c171: u_a4 - u_a1 - 1072 y_a1_proc_1 >= -3885
 c172: u_a1 - u_a4 - 1272 y_a4_proc_0 >= -1
 c173: u_a1 - u_a4 - 917 y_a4_proc_2 >= -1296
 c174: u_a1 - u_a4 - 465 y_a4_proc_3 >= -1
 c175: u_a1 - u_a4 - 1181 y_a4_proc_1 >= -1296
 c176: u_a5 - u_a1 - 1065 y_a1_proc_0 >= -1
 c177: u_a5 - u_a1 - 1020 y_a1_proc_2 >= -2591
 c178: u_a5 - u_a1 - 1072 y_a1_proc_1 >= -2591
 c179: u_a1 - u_a5 - 497 y_a5_proc_0 >= 0
 c180: u_a1 - u_a5 - 1112 y_a5_proc_2 >= -2590
 c181: u_a1 - u_a5 - 621 y_a5_proc_1 >= -2590
 c182: u_a6 - u_a1 - 1065 y_a1_proc_0 >= -2590
 c183: u_a6 - u_a1 - 1020 y_a1_proc_2 >= -3885
 c184: u_a6 - u_a1 - 1072 y_a1_proc_1 >= -2590
 c185: u_a1 - u_a6 - 1032 y_a6_proc_0 >= -1
 c186: u_a1 - u_a6 - 724 y_a6_proc_2 >= -1296
 c187: u_a1 - u_a6 - 699 y_a6_proc_1 >= -1
 c188: u_a7 - u_a1 - 1065 y_a1_proc_0 >= -2590
 c189: u_a7 - u_a1 - 1020 y_a1_proc_2 >= -2590
 c190: u_a1 - u_a7 - 1062 y_a7_proc_0 >= -1
 c191: u_a1 - u_a7 - 466 y_a7_proc_2 >= -1
 c192: u_a8 - u_a1 - 1020 y_a1_proc_2 >= -2590
 c193: u_a8 - u_a1 - 1005 y_a1_proc_3 >= -3885
 c194: u_a8 - u_a1 - 1072 y_a1_proc_1 >= -3885
 c195: u_a1 - u_a8 - 1016 y_a8_proc_2 >= -1
 c196: u_a1 - u_a8 - 1025 y_a8_proc_3 >= -1296
 c197: u_a1 - u_a8 - 1200 y_a8_proc_1 >= -1296
 c198: u_a9 - u_a1 - 1065 y_a1_proc_0 >= -2591
 c199: u_a9 - u_a1 - 1005 y_a1_proc_3 >= -2591
 c200: u_a1 - u_a9 - 1092 y_a9_proc_0 >= 0
 c201: u_a1 - u_a9 - 398 y_a9_proc_3 >= 0
 c202: u_a10 - u_a1 - 1065 y_a1_proc_0 >= -2590
 c203: u_a10 - u_a1 - 1020 y_a1_proc_2 >= -2590
 c204: u_a10 - u_a1 - 1005 y_a1_proc_3 >= -3885
 c205: u_a10 - u_a1 - 1072 y_a1_proc_1 >= -3885
 c206: u_a1 - u_a10 - 868 y_a10_proc_0 >= -1
 c207: u_a1 - u_a10 - 887 y_a10_proc_2 >= -1
 c208: u_a1 - u_a10 - 1208 y_a10_proc_3 >= -1296
 c209: u_a1 - u_a10 - 890 y_a10_proc_1 >= -1296
 c210: u_a11 - u_a1 - 1065 y_a1_proc_0 >= -2591
 c211: u_a11 - u_a1 - 1020 y_a1_proc_2 >= -3886
 c212: u_a11 - u_a1 - 1005 y_a1_proc_3 >= -2591
 c213: u_a11 - u_a1 - 1072 y_a1_proc_1 >= -3886
 c214: u_a1 - u_a11 - 1153 y_a11_proc_0 >= 0
 c215: u_a1 - u_a11 - 1027 y_a11_proc_2 >= -1295
 c216: u_a1 - u_a11 - 446 y_a11_proc_3 >= 0
 c217: u_a1 - u_a11 - 491 y_a11_proc_1 >= -1295
 c218: u_a12 - u_a1 - 1065 y_a1_proc_0 >= 0
 c219: u_a12 - u_a1 - 1020 y_a1_proc_2 >= -2590
 c220: u_a12 - u_a1 - 1005 y_a1_proc_3 >= -2590
 c221: u_a12 - u_a1 - 1072 y_a1_proc_1 >= -2590
 c222: u_a1 - u_a12 - 883 y_a12_proc_0 >= -1
 c223: u_a1 - u_a12 - 945 y_a12_proc_2 >= -2591
 c224: u_a1 - u_a12 - 1035 y_a12_proc_3 >= -2591
 c225: u_a1 - u_a12 - 1099 y_a12_proc_1 >= -2591
 c226: u_a13 - u_a1 - 1065 y_a1_proc_0 >= -2590
 c227: u_a13 - u_a1 - 1020 y_a1_proc_2 >= -2590
 c228: u_a13 - u_a1 - 1005 y_a1_proc_3 >= -3885
 c229: u_a1 - u_a13 - 877 y_a13_proc_0 >= -1
 c230: u_a1 - u_a13 - 638 y_a13_proc_2 >= -1
 c231: u_a1 - u_a13 - 828 y_a13_proc_3 >= -1296
 c232: u_a14 - u_a1 - 1065 y_a1_proc_0 >= -2591
 c233: u_a14 - u_a1 - 1020 y_a1_proc_2 >= -3886
 c234: u_a14 - u_a1 - 1005 y_a1_proc_3 >= -3886
 c235: u_a14 - u_a1 - 1072 y_a1_proc_1 >= -2591
 c236: u_a1 - u_a14 - 918 y_a14_proc_0 >= 0
 c237: u_a1 - u_a14 - 1190 y_a14_proc_2 >= -1295
 c238: u_a1 - u_a14 - 1127 y_a14_proc_3 >= -1295
 c239: u_a1 - u_a14 - 1045 y_a14_proc_1 >= 0
 c240: u_a3 - u_a2 - 841 y_a2_proc_0 >= -3886
 c241: u_a3 - u_a2 - 635 y_a2_proc_2 >= -2591
 c242: u_a3 - u_a2 - 946 y_a2_proc_1 >= -3886
 c243: u_a2 - u_a3 - 1058 y_a3_proc_0 >= -1295
 c244: u_a2 - u_a3 - 916 y_a3_proc_2 >= 0
 c245: u_a2 - u_a3 - 1113 y_a3_proc_1 >= -1295
 c246: u_a4 - u_a2 - 841 y_a2_proc_0 >= -2591
 c247: u_a4 - u_a2 - 635 y_a2_proc_2 >= -2591
 c248: u_a4 - u_a2 - 1295 y_a2_proc_3 >= -1
 c249: u_a4 - u_a2 - 946 y_a2_proc_1 >= -2591
 c250: u_a2 - u_a4 - 1272 y_a4_proc_0 >= -2590
 c251: u_a2 - u_a4 - 917 y_a4_proc_2 >= -2590
 c252: u_a2 - u_a4 - 465 y_a4_proc_3 >= 0
 c253: u_a2 - u_a4 - 1181 y_a4_proc_1 >= -2590
 c254: u_a5 - u_a2 - 841 y_a2_proc_0 >= -2592
 c255: u_a5 - u_a2 - 635 y_a2_proc_2 >= -3887
 c256: u_a5 - u_a2 - 946 y_a2_proc_1 >= -3887
 c257: u_a2 - u_a5 - 497 y_a5_proc_0 >= 1
 c258: u_a2 - u_a5 - 1112 y_a5_proc_2 >= -1294
 c259: u_a2 - u_a5 - 621 y_a5_proc_1 >= -1294
 c260: u_a6 - u_a2 - 841 y_a2_proc_0 >= -3886
 c261: u_a6 - u_a2 - 635 y_a2_proc_2 >= -3886
 c262: u_a6 - u_a2 - 946 y_a2_proc_1 >= -2591
 c263: u_a2 - u_a6 - 1032 y_a6_proc_0 >= -1295
 c264: u_a2 - u_a6 - 724 y_a6_proc_2 >= -1295
 c265: u_a2 - u_a6 - 699 y_a6_proc_1 >= 0
 c266: u_a7 - u_a2 - 841 y_a2_proc_0 >= -3885
 c267: u_a7 - u_a2 - 635 y_a2_proc_2 >= -2590
 c268: u_a2 - u_a7 - 1062 y_a7_proc_0 >= -1296
 c269: u_a2 - u_a7 - 466 y_a7_proc_2 >= -1
 c270: u_a8 - u_a2 - 635 y_a2_proc_2 >= -2591
 c271: u_a8 - u_a2 - 1295 y_a2_proc_3 >= -2591
 c272: u_a8 - u_a2 - 946 y_a2_proc_1 >= -3886
 c273: u_a2 - u_a8 - 1016 y_a8_proc_2 >= 0
 c274: u_a2 - u_a8 - 1025 y_a8_proc_3 >= 0
 c275: u_a2 - u_a8 - 1200 y_a8_proc_1 >= -1295
 c276: u_a9 - u_a2 - 841 y_a2_proc_0 >= -2592
 c277: u_a9 - u_a2 - 1295 y_a2_proc_3 >= -2
 c278: u_a2 - u_a9 - 1092 y_a9_proc_0 >= -2589
 c279: u_a2 - u_a9 - 398 y_a9_proc_3 >= 1
 c280: u_a10 - u_a2 - 841 y_a2_proc_0 >= -3886
 c281: u_a10 - u_a2 - 635 y_a2_proc_2 >= -2591
 c282: u_a10 - u_a2 - 1295 y_a2_proc_3 >= -2591
 c283: u_a10 - u_a2 - 946 y_a2_proc_1 >= -3886
 c284: u_a2 - u_a10 - 868 y_a10_proc_0 >= -1295
 c285: u_a2 - u_a10 - 887 y_a10_proc_2 >= 0
 c286: u_a2 - u_a10 - 1208 y_a10_proc_3 >= 0
 c287: u_a2 - u_a10 - 890 y_a10_proc_1 >= -1295
 c288: u_a11 - u_a2 - 841 y_a2_proc_0 >= -2592
 c289: u_a11 - u_a2 - 635 y_a2_proc_2 >= -2592
 c290: u_a11 - u_a2 - 1295 y_a2_proc_3 >= -2
 c291: u_a11 - u_a2 - 946 y_a2_proc_1 >= -2592
 c292: u_a2 - u_a11 - 1153 y_a11_proc_0 >= -2589
 c293: u_a2 - u_a11 - 1027 y_a11_proc_2 >= -2589
 c294: u_a2 - u_a11 - 446 y_a11_proc_3 >= 1
 c295: u_a2 - u_a11 - 491 y_a11_proc_1 >= -2589
 c296: u_a12 - u_a2 - 841 y_a2_proc_0 >= -2591
 c297: u_a12 - u_a2 - 635 y_a2_proc_2 >= -3886
 c298: u_a12 - u_a2 - 1295 y_a2_proc_3 >= -2591
 c299: u_a12 - u_a2 - 946 y_a2_proc_1 >= -3886
 c300: u_a2 - u_a12 - 883 y_a12_proc_0 >= 0
 c301: u_a2 - u_a12 - 945 y_a12_proc_2 >= -1295
 c302: u_a2 - u_a12 - 1035 y_a12_proc_3 >= 0
 c303: u_a2 - u_a12 - 1099 y_a12_proc_1 >= -1295
 c304: u_a13 - u_a2 - 841 y_a2_proc_0 >= -3885
 c305: u_a13 - u_a2 - 635 y_a2_proc_2 >= -2590
 c306: u_a13 - u_a2 - 1295 y_a2_proc_3 >= -2590
 c307: u_a2 - u_a13 - 877 y_a13_proc_0 >= -1296
 c308: u_a2 - u_a13 - 638 y_a13_proc_2 >= -1
 c309: u_a2 - u_a13 - 828 y_a13_proc_3 >= -1
 c310: u_a14 - u_a2 - 841 y_a2_proc_0 >= -3887
 c311: u_a14 - u_a2 - 635 y_a2_proc_2 >= -3887
 c312: u_a14 - u_a2 - 1295 y_a2_proc_3 >= -2592
 c313: u_a14 - u_a2 - 946 y_a2_proc_1 >= -2592
 c314: u_a2 - u_a14 - 918 y_a14_proc_0 >= -1294
 c315: u_a2 - u_a14 - 1190 y_a14_proc_2 >= -1294
 c316: u_a2 - u_a14 - 1127 y_a14_proc_3 >= 1
 c317: u_a2 - u_a14 - 1045 y_a14_proc_1 >= 1
 c318: u_a4 - u_a3 - 1058 y_a3_proc_0 >= -3885
 c319: u_a4 - u_a3 - 916 y_a3_proc_2 >= -2590
 c320: u_a4 - u_a3 - 1113 y_a3_proc_1 >= -3885
 c321: u_a3 - u_a4 - 1272 y_a4_proc_0 >= -1296
 c322: u_a3 - u_a4 - 917 y_a4_proc_2 >= -1
 c323: u_a3 - u_a4 - 1181 y_a4_proc_1 >= -1296
 c324: u_a5 - u_a3 - 1058 y_a3_proc_0 >= -2591
 c325: u_a5 - u_a3 - 916 y_a3_proc_2 >= -2591
 c326: u_a5 - u_a3 - 1113 y_a3_proc_1 >= -3886
 c327: u_a3 - u_a5 - 497 y_a5_proc_0 >= 0
 c328: u_a3 - u_a5 - 1112 y_a5_proc_2 >= 0
 c329: u_a3 - u_a5 - 621 y_a5_proc_1 >= -1295
 c330: u_a6 - u_a3 - 1058 y_a3_proc_0 >= -3886
 c331: u_a6 - u_a3 - 916 y_a3_proc_2 >= -2591
 c332: u_a6 - u_a3 - 1113 y_a3_proc_1 >= -2591
 c333: u_a3 - u_a6 - 1032 y_a6_proc_0 >= -1295
 c334: u_a3 - u_a6 - 724 y_a6_proc_2 >= 0
 c335: u_a3 - u_a6 - 699 y_a6_proc_1 >= 0
 c336: u_a7 - u_a3 - 1058 y_a3_proc_0 >= -2590
 c337: u_a7 - u_a3 - 916 y_a3_proc_2 >= 0
 c338: u_a3 - u_a7 - 1062 y_a7_proc_0 >= -2591
 c339: u_a3 - u_a7 - 466 y_a7_proc_2 >= -1
 c340: u_a8 - u_a3 - 916 y_a3_proc_2 >= -1
 c341: u_a8 - u_a3 - 1113 y_a3_proc_1 >= -2591
 c342: u_a3 - u_a8 - 1016 y_a8_proc_2 >= 0
 c343: u_a3 - u_a8 - 1200 y_a8_proc_1 >= -2590
 c344: u_a9 - u_a3 - 1058 y_a3_proc_0 >= -5182
 c345: u_a3 - u_a9 - 1092 y_a9_proc_0 >= 1
 c346: u_a10 - u_a3 - 1058 y_a3_proc_0 >= -2591
 c347: u_a10 - u_a3 - 916 y_a3_proc_2 >= -1
 c348: u_a10 - u_a3 - 1113 y_a3_proc_1 >= -2591
 c349: u_a3 - u_a10 - 868 y_a10_proc_0 >= -2590
 c350: u_a3 - u_a10 - 887 y_a10_proc_2 >= 0
 c351: u_a3 - u_a10 - 890 y_a10_proc_1 >= -2590
 c352: u_a11 - u_a3 - 1058 y_a3_proc_0 >= -3887
 c353: u_a11 - u_a3 - 916 y_a3_proc_2 >= -2592
 c354: u_a11 - u_a3 - 1113 y_a3_proc_1 >= -3887
 c355: u_a3 - u_a11 - 1153 y_a11_proc_0 >= -1294
 c356: u_a3 - u_a11 - 1027 y_a11_proc_2 >= 1
 c357: u_a3 - u_a11 - 491 y_a11_proc_1 >= -1294
 c358: u_a12 - u_a3 - 1058 y_a3_proc_0 >= -2591
 c359: u_a12 - u_a3 - 916 y_a3_proc_2 >= -2591
 c360: u_a12 - u_a3 - 1113 y_a3_proc_1 >= -3886
 c361: u_a3 - u_a12 - 883 y_a12_proc_0 >= 0
 c362: u_a3 - u_a12 - 945 y_a12_proc_2 >= 0
 c363: u_a3 - u_a12 - 1099 y_a12_proc_1 >= -1295
 c364: u_a13 - u_a3 - 1058 y_a3_proc_0 >= -2590
 c365: u_a13 - u_a3 - 916 y_a3_proc_2 >= 0
 c366: u_a3 - u_a13 - 877 y_a13_proc_0 >= -2591
 c367: u_a3 - u_a13 - 638 y_a13_proc_2 >= -1
 c368: u_a14 - u_a3 - 1058 y_a3_proc_0 >= -3887
 c369: u_a14 - u_a3 - 916 y_a3_proc_2 >= -2592
 c370: u_a14 - u_a3 - 1113 y_a3_proc_1 >= -2592
 c371: u_a3 - u_a14 - 918 y_a14_proc_0 >= -1294
 c372: u_a3 - u_a14 - 1190 y_a14_proc_2 >= 1
 c373: u_a3 - u_a14 - 1045 y_a14_proc_1 >= 1
 c374: u_a5 - u_a4 - 1272 y_a4_proc_0 >= -2591
 c375: u_a5 - u_a4 - 917 y_a4_proc_2 >= -3886
 c376: u_a5 - u_a4 - 1181 y_a4_proc_1 >= -3886
 c377: u_a4 - u_a5 - 497 y_a5_proc_0 >= 0
 c378: u_a4 - u_a5 - 1112 y_a5_proc_2 >= -1295
 c379: u_a4 - u_a5 - 621 y_a5_proc_1 >= -1295
 c380: u_a6 - u_a4 - 1272 y_a4_proc_0 >= -3886
 c381: u_a6 - u_a4 - 917 y_a4_proc_2 >= -3886
 c382: u_a6 - u_a4 - 1181 y_a4_proc_1 >= -2591
 c383: u_a4 - u_a6 - 1032 y_a6_proc_0 >= -1295
 c384: u_a4 - u_a6 - 724 y_a6_proc_2 >= -1295
 c385: u_a4 - u_a6 - 699 y_a6_proc_1 >= 0
 c386: u_a7 - u_a4 - 1272 y_a4_proc_0 >= -3885
 c387: u_a7 - u_a4 - 917 y_a4_proc_2 >= -2590
 c388: u_a4 - u_a7 - 1062 y_a7_proc_0 >= -1296
 c389: u_a4 - u_a7 - 466 y_a7_proc_2 >= -1
 c390: u_a8 - u_a4 - 917 y_a4_proc_2 >= -2591
 c391: u_a8 - u_a4 - 465 y_a4_proc_3 >= -2591
 c392: u_a8 - u_a4 - 1181 y_a4_proc_1 >= -3886
 c393: u_a4 - u_a8 - 1016 y_a8_proc_2 >= 0
 c394: u_a4 - u_a8 - 1025 y_a8_proc_3 >= 0
 c395: u_a4 - u_a8 - 1200 y_a8_proc_1 >= -1295
 c396: u_a9 - u_a4 - 1272 y_a4_proc_0 >= -2592
 c397: u_a9 - u_a4 - 465 y_a4_proc_3 >= -2
 c398: u_a4 - u_a9 - 1092 y_a9_proc_0 >= -2589
 c399: u_a4 - u_a9 - 398 y_a9_proc_3 >= 1
 c400: u_a10 - u_a4 - 1272 y_a4_proc_0 >= -3886
 c401: u_a10 - u_a4 - 917 y_a4_proc_2 >= -2591
 c402: u_a10 - u_a4 - 465 y_a4_proc_3 >= -2591
 c403: u_a10 - u_a4 - 1181 y_a4_proc_1 >= -3886
 c404: u_a4 - u_a10 - 868 y_a10_proc_0 >= -1295
 c405: u_a4 - u_a10 - 887 y_a10_proc_2 >= 0
 c406: u_a4 - u_a10 - 1208 y_a10_proc_3 >= 0
 c407: u_a4 - u_a10 - 890 y_a10_proc_1 >= -1295
 c408: u_a11 - u_a4 - 1272 y_a4_proc_0 >= -2592
 c409: u_a11 - u_a4 - 917 y_a4_proc_2 >= -2592
 c410: u_a11 - u_a4 - 465 y_a4_proc_3 >= -2
 c411: u_a11 - u_a4 - 1181 y_a4_proc_1 >= -2592
 c412: u_a4 - u_a11 - 1153 y_a11_proc_0 >= -2589
 c413: u_a4 - u_a11 - 1027 y_a11_proc_2 >= -2589
 c414: u_a4 - u_a11 - 446 y_a11_proc_3 >= 1
 c415: u_a4 - u_a11 - 491 y_a11_proc_1 >= -2589
 c416: u_a12 - u_a4 - 1272 y_a4_proc_0 >= -2590
 c417: u_a12 - u_a4 - 917 y_a4_proc_2 >= -3885
 c418: u_a12 - u_a4 - 465 y_a4_proc_3 >= -2590
 c419: u_a12 - u_a4 - 1181 y_a4_proc_1 >= -3885
 c420: u_a4 - u_a12 - 883 y_a12_proc_0 >= -1
 c421: u_a4 - u_a12 - 945 y_a12_proc_2 >= -1296
 c422: u_a4 - u_a12 - 1035 y_a12_proc_3 >= -1
 c423: u_a4 - u_a12 - 1099 y_a12_proc_1 >= -1296
 c424: u_a13 - u_a4 - 1272 y_a4_proc_0 >= -3885
 c425: u_a13 - u_a4 - 917 y_a4_proc_2 >= -2590
 c426: u_a13 - u_a4 - 465 y_a4_proc_3 >= -2590
 c427: u_a4 - u_a13 - 877 y_a13_proc_0 >= -1296
 c428: u_a4 - u_a13 - 638 y_a13_proc_2 >= -1
 c429: u_a4 - u_a13 - 828 y_a13_proc_3 >= -1
 c430: u_a14 - u_a4 - 1272 y_a4_proc_0 >= -3886
 c431: u_a14 - u_a4 - 917 y_a4_proc_2 >= -3886
 c432: u_a14 - u_a4 - 465 y_a4_proc_3 >= -2591
 c433: u_a14 - u_a4 - 1181 y_a4_proc_1 >= -2591
 c434: u_a4 - u_a14 - 918 y_a14_proc_0 >= -1295
 c435: u_a4 - u_a14 - 1190 y_a14_proc_2 >= -1295
 c436: u_a4 - u_a14 - 1127 y_a14_proc_3 >= 0
 c437: u_a4 - u_a14 - 1045 y_a14_proc_1 >= 0
 c438: u_a6 - u_a5 - 497 y_a5_proc_0 >= -2590
 c439: u_a6 - u_a5 - 1112 y_a5_proc_2 >= -3885
 c440: u_a6 - u_a5 - 621 y_a5_proc_1 >= -2590
 c441: u_a5 - u_a6 - 1032 y_a6_proc_0 >= -1
 c442: u_a5 - u_a6 - 724 y_a6_proc_2 >= -1296
 c443: u_a5 - u_a6 - 699 y_a6_proc_1 >= -1
 c444: u_a7 - u_a5 - 497 y_a5_proc_0 >= -2589
 c445: u_a7 - u_a5 - 1112 y_a5_proc_2 >= -2589
 c446: u_a5 - u_a7 - 1062 y_a7_proc_0 >= -2
 c447: u_a5 - u_a7 - 466 y_a7_proc_2 >= -2
 c448: u_a8 - u_a5 - 1112 y_a5_proc_2 >= -2590
 c449: u_a8 - u_a5 - 621 y_a5_proc_1 >= -3885
 c450: u_a5 - u_a8 - 1016 y_a8_proc_2 >= -1
 c451: u_a5 - u_a8 - 1200 y_a8_proc_1 >= -1296
 c452: u_a9 - u_a5 - 497 y_a5_proc_0 >= -2591
 c453: u_a5 - u_a9 - 1092 y_a9_proc_0 >= 0
 c454: u_a10 - u_a5 - 497 y_a5_proc_0 >= -2590
 c455: u_a10 - u_a5 - 1112 y_a5_proc_2 >= -2590
 c456: u_a10 - u_a5 - 621 y_a5_proc_1 >= -3885
 c457: u_a5 - u_a10 - 868 y_a10_proc_0 >= -1
 c458: u_a5 - u_a10 - 887 y_a10_proc_2 >= -1
 c459: u_a5 - u_a10 - 890 y_a10_proc_1 >= -1296
 c460: u_a11 - u_a5 - 497 y_a5_proc_0 >= -2591
 c461: u_a11 - u_a5 - 1112 y_a5_proc_2 >= -3886
 c462: u_a11 - u_a5 - 621 y_a5_proc_1 >= -3886
 c463: u_a5 - u_a11 - 1153 y_a11_proc_0 >= 0
 c464: u_a5 - u_a11 - 1027 y_a11_proc_2 >= -1295
 c465: u_a5 - u_a11 - 491 y_a11_proc_1 >= -1295
 c466: u_a12 - u_a5 - 497 y_a5_proc_0 >= 0
 c467: u_a12 - u_a5 - 1112 y_a5_proc_2 >= -2590
 c468: u_a12 - u_a5 - 621 y_a5_proc_1 >= -2590
 c469: u_a5 - u_a12 - 883 y_a12_proc_0 >= -1
 c470: u_a5 - u_a12 - 945 y_a12_proc_2 >= -2591
 c471: u_a5 - u_a12 - 1099 y_a12_proc_1 >= -2591
 c472: u_a13 - u_a5 - 497 y_a5_proc_0 >= -2589
 c473: u_a13 - u_a5 - 1112 y_a5_proc_2 >= -2589
 c474: u_a5 - u_a13 - 877 y_a13_proc_0 >= -2
 c475: u_a5 - u_a13 - 638 y_a13_proc_2 >= -2
 c476: u_a14 - u_a5 - 497 y_a5_proc_0 >= -2591
 c477: u_a14 - u_a5 - 1112 y_a5_proc_2 >= -3886
 c478: u_a14 - u_a5 - 621 y_a5_proc_1 >= -2591
 c479: u_a5 - u_a14 - 918 y_a14_proc_0 >= 0
 c480: u_a5 - u_a14 - 1190 y_a14_proc_2 >= -1295
 c481: u_a5 - u_a14 - 1045 y_a14_proc_1 >= 0
 c482: u_a7 - u_a6 - 1032 y_a6_proc_0 >= -3885
 c483: u_a7 - u_a6 - 724 y_a6_proc_2 >= -2590
 c484: u_a6 - u_a7 - 1062 y_a7_proc_0 >= -1296
 c485: u_a6 - u_a7 - 466 y_a7_proc_2 >= -1
 c486: u_a8 - u_a6 - 724 y_a6_proc_2 >= -2591
 c487: u_a8 - u_a6 - 699 y_a6_proc_1 >= -2591
 c488: u_a6 - u_a8 - 1016 y_a8_proc_2 >= 0
 c489: u_a6 - u_a8 - 1200 y_a8_proc_1 >= 0
 c490: u_a9 - u_a6 - 1032 y_a6_proc_0 >= -5181
 c491: u_a6 - u_a9 - 1092 y_a9_proc_0 >= 0
 c492: u_a10 - u_a6 - 1032 y_a6_proc_0 >= -3885
 c493: u_a10 - u_a6 - 724 y_a6_proc_2 >= -2590
 c494: u_a10 - u_a6 - 699 y_a6_proc_1 >= -2590
 c495: u_a6 - u_a10 - 868 y_a10_proc_0 >= -1296
 c496: u_a6 - u_a10 - 887 y_a10_proc_2 >= -1
 c497: u_a6 - u_a10 - 890 y_a10_proc_1 >= -1
 c498: u_a11 - u_a6 - 1032 y_a6_proc_0 >= -3886
 c499: u_a11 - u_a6 - 724 y_a6_proc_2 >= -3886
 c500: u_a11 - u_a6 - 699 y_a6_proc_1 >= -2591
 c501: u_a6 - u_a11 - 1153 y_a11_proc_0 >= -1295
 c502: u_a6 - u_a11 - 1027 y_a11_proc_2 >= -1295
 c503: u_a6 - u_a11 - 491 y_a11_proc_1 >= 0
 c504: u_a12 - u_a6 - 1032 y_a6_proc_0 >= -2590
 c505: u_a12 - u_a6 - 724 y_a6_proc_2 >= -3885
 c506: u_a12 - u_a6 - 699 y_a6_proc_1 >= -2590
 c507: u_a6 - u_a12 - 883 y_a12_proc_0 >= -1
 c508: u_a6 - u_a12 - 945 y_a12_proc_2 >= -1296
 c509: u_a6 - u_a12 - 1099 y_a12_proc_1 >= -1
 c510: u_a13 - u_a6 - 1032 y_a6_proc_0 >= -3885
 c511: u_a13 - u_a6 - 724 y_a6_proc_2 >= -2590
 c512: u_a6 - u_a13 - 877 y_a13_proc_0 >= -1296
 c513: u_a6 - u_a13 - 638 y_a13_proc_2 >= -1
 c514: u_a14 - u_a6 - 1032 y_a6_proc_0 >= -2591
 c515: u_a14 - u_a6 - 724 y_a6_proc_2 >= -2591
 c516: u_a14 - u_a6 - 699 y_a6_proc_1 >= -1
 c517: u_a6 - u_a14 - 918 y_a14_proc_0 >= -2590
 c518: u_a6 - u_a14 - 1190 y_a14_proc_2 >= -2590
 c519: u_a6 - u_a14 - 1045 y_a14_proc_1 >= 0
 c520: u_a8 - u_a7 - 466 y_a7_proc_2 >= -1
 c521: u_a7 - u_a8 - 1016 y_a8_proc_2 >= 0
 c522: u_a9 - u_a7 - 1062 y_a7_proc_0 >= -5182
 c523: u_a7 - u_a9 - 1092 y_a9_proc_0 >= 1
 c524: u_a10 - u_a7 - 1062 y_a7_proc_0 >= -2591
 c525: u_a10 - u_a7 - 466 y_a7_proc_2 >= -1
 c526: u_a7 - u_a10 - 868 y_a10_proc_0 >= -2590
 c527: u_a7 - u_a10 - 887 y_a10_proc_2 >= 0
 c528: u_a11 - u_a7 - 1062 y_a7_proc_0 >= -3887
 c529: u_a11 - u_a7 - 466 y_a7_proc_2 >= -2592
 c530: u_a7 - u_a11 - 1153 y_a11_proc_0 >= -1294
 c531: u_a7 - u_a11 - 1027 y_a11_proc_2 >= 1
 c532: u_a12 - u_a7 - 1062 y_a7_proc_0 >= -2591
 c533: u_a12 - u_a7 - 466 y_a7_proc_2 >= -2591
 c534: u_a7 - u_a12 - 883 y_a12_proc_0 >= 0
 c535: u_a7 - u_a12 - 945 y_a12_proc_2 >= 0
 c536: u_a13 - u_a7 - 1062 y_a7_proc_0 >= -2591
 c537: u_a13 - u_a7 - 466 y_a7_proc_2 >= -1
 c538: u_a7 - u_a13 - 877 y_a13_proc_0 >= -2590
 c539: u_a7 - u_a13 - 638 y_a13_proc_2 >= 0
 c540: u_a14 - u_a7 - 1062 y_a7_proc_0 >= -3887
 c541: u_a14 - u_a7 - 466 y_a7_proc_2 >= -2592
 c542: u_a7 - u_a14 - 918 y_a14_proc_0 >= -1294
 c543: u_a7 - u_a14 - 1190 y_a14_proc_2 >= 1
 c544: u_a9 - u_a8 - 1025 y_a8_proc_3 >= -2591
 c545: u_a8 - u_a9 - 398 y_a9_proc_3 >= 0
 c546: u_a10 - u_a8 - 1016 y_a8_proc_2 >= 0
 c547: u_a10 - u_a8 - 1025 y_a8_proc_3 >= -2590
 c548: u_a10 - u_a8 - 1200 y_a8_proc_1 >= -2590
 c549: u_a8 - u_a10 - 887 y_a10_proc_2 >= -1
 c550: u_a8 - u_a10 - 1208 y_a10_proc_3 >= -2591
 c551: u_a8 - u_a10 - 890 y_a10_proc_1 >= -2591
 c552: u_a11 - u_a8 - 1016 y_a8_proc_2 >= -2591
 c553: u_a11 - u_a8 - 1025 y_a8_proc_3 >= -2591
 c554: u_a11 - u_a8 - 1200 y_a8_proc_1 >= -3886
 c555: u_a8 - u_a11 - 1027 y_a11_proc_2 >= 0
 c556: u_a8 - u_a11 - 446 y_a11_proc_3 >= 0
 c557: u_a8 - u_a11 - 491 y_a11_proc_1 >= -1295
 c558: u_a12 - u_a8 - 1016 y_a8_proc_2 >= -2590
 c559: u_a12 - u_a8 - 1025 y_a8_proc_3 >= -3885
 c560: u_a12 - u_a8 - 1200 y_a8_proc_1 >= -3885
 c561: u_a8 - u_a12 - 945 y_a12_proc_2 >= -1
 c562: u_a8 - u_a12 - 1035 y_a12_proc_3 >= -1296
 c563: u_a8 - u_a12 - 1099 y_a12_proc_1 >= -1296
 c564: u_a13 - u_a8 - 1016 y_a8_proc_2 >= 0
 c565: u_a13 - u_a8 - 1025 y_a8_proc_3 >= -2590
 c566: u_a8 - u_a13 - 638 y_a13_proc_2 >= -1
 c567: u_a8 - u_a13 - 828 y_a13_proc_3 >= -2591
 c568: u_a14 - u_a8 - 1016 y_a8_proc_2 >= -2591
 c569: u_a14 - u_a8 - 1025 y_a8_proc_3 >= -3886
 c570: u_a14 - u_a8 - 1200 y_a8_proc_1 >= -2591
 c571: u_a8 - u_a14 - 1190 y_a14_proc_2 >= 0
 c572: u_a8 - u_a14 - 1127 y_a14_proc_3 >= -1295
 c573: u_a8 - u_a14 - 1045 y_a14_proc_1 >= 0
 c574: u_a10 - u_a9 - 1092 y_a9_proc_0 >= -3885
 c575: u_a10 - u_a9 - 398 y_a9_proc_3 >= -2590
 c576: u_a9 - u_a10 - 868 y_a10_proc_0 >= -1296
 c577: u_a9 - u_a10 - 1208 y_a10_proc_3 >= -1
 c578: u_a11 - u_a9 - 1092 y_a9_proc_0 >= -2590
 c579: u_a11 - u_a9 - 398 y_a9_proc_3 >= 0
 c580: u_a9 - u_a11 - 1153 y_a11_proc_0 >= -2591
 c581: u_a9 - u_a11 - 446 y_a11_proc_3 >= -1
 c582: u_a12 - u_a9 - 1092 y_a9_proc_0 >= -2589
 c583: u_a12 - u_a9 - 398 y_a9_proc_3 >= -2589
 c584: u_a9 - u_a12 - 883 y_a12_proc_0 >= -2
 c585: u_a9 - u_a12 - 1035 y_a12_proc_3 >= -2
 c586: u_a13 - u_a9 - 1092 y_a9_proc_0 >= -3884
 c587: u_a13 - u_a9 - 398 y_a9_proc_3 >= -2589
 c588: u_a9 - u_a13 - 877 y_a13_proc_0 >= -1297
 c589: u_a9 - u_a13 - 828 y_a13_proc_3 >= -2
 c590: u_a14 - u_a9 - 1092 y_a9_proc_0 >= -3885
 c591: u_a14 - u_a9 - 398 y_a9_proc_3 >= -2590
 c592: u_a9 - u_a14 - 918 y_a14_proc_0 >= -1296
 c593: u_a9 - u_a14 - 1127 y_a14_proc_3 >= -1
 c594: u_a11 - u_a10 - 868 y_a10_proc_0 >= -3886
 c595: u_a11 - u_a10 - 887 y_a10_proc_2 >= -2591
 c596: u_a11 - u_a10 - 1208 y_a10_proc_3 >= -2591
 c597: u_a11 - u_a10 - 890 y_a10_proc_1 >= -3886
 c598: u_a10 - u_a11 - 1153 y_a11_proc_0 >= -1295
 c599: u_a10 - u_a11 - 1027 y_a11_proc_2 >= 0
 c600: u_a10 - u_a11 - 446 y_a11_proc_3 >= 0
 c601: u_a10 - u_a11 - 491 y_a11_proc_1 >= -1295
 c602: u_a12 - u_a10 - 868 y_a10_proc_0 >= 0
 c603: u_a12 - u_a10 - 887 y_a10_proc_2 >= 0
 c604: u_a12 - u_a10 - 1208 y_a10_proc_3 >= -1295
 c605: u_a12 - u_a10 - 890 y_a10_proc_1 >= -1295
 c606: u_a10 - u_a12 - 883 y_a12_proc_0 >= -2591
 c607: u_a10 - u_a12 - 945 y_a12_proc_2 >= -2591
 c608: u_a10 - u_a12 - 1035 y_a12_proc_3 >= -3886
 c609: u_a10 - u_a12 - 1099 y_a12_proc_1 >= -3886
 c610: u_a13 - u_a10 - 868 y_a10_proc_0 >= -2590
 c611: u_a13 - u_a10 - 887 y_a10_proc_2 >= 0
 c612: u_a13 - u_a10 - 1208 y_a10_proc_3 >= -2590
 c613: u_a10 - u_a13 - 877 y_a13_proc_0 >= -2591
 c614: u_a10 - u_a13 - 638 y_a13_proc_2 >= -1
 c615: u_a10 - u_a13 - 828 y_a13_proc_3 >= -2591
 c616: u_a14 - u_a10 - 868 y_a10_proc_0 >= -3886
 c617: u_a14 - u_a10 - 887 y_a10_proc_2 >= -2591
 c618: u_a14 - u_a10 - 1208 y_a10_proc_3 >= -3886
 c619: u_a14 - u_a10 - 890 y_a10_proc_1 >= -2591
 c620: u_a10 - u_a14 - 918 y_a14_proc_0 >= -1295
 c621: u_a10 - u_a14 - 1190 y_a14_proc_2 >= 0
 c622: u_a10 - u_a14 - 1127 y_a14_proc_3 >= -1295
 c623: u_a10 - u_a14 - 1045 y_a14_proc_1 >= 0
 c624: u_a12 - u_a11 - 1153 y_a11_proc_0 >= -2589
 c625: u_a12 - u_a11 - 1027 y_a11_proc_2 >= -3884
 c626: u_a12 - u_a11 - 446 y_a11_proc_3 >= -2589
 c627: u_a12 - u_a11 - 491 y_a11_proc_1 >= -3884
 c628: u_a11 - u_a12 - 883 y_a12_proc_0 >= -2
 c629: u_a11 - u_a12 - 945 y_a12_proc_2 >= -1297
 c630: u_a11 - u_a12 - 1035 y_a12_proc_3 >= -2
 c631: u_a11 - u_a12 - 1099 y_a12_proc_1 >= -1297
 c632: u_a13 - u_a11 - 1153 y_a11_proc_0 >= -3884
 c633: u_a13 - u_a11 - 1027 y_a11_proc_2 >= -2589
 c634: u_a13 - u_a11 - 446 y_a11_proc_3 >= -2589
 c635: u_a11 - u_a13 - 877 y_a13_proc_0 >= -1297
 c636: u_a11 - u_a13 - 638 y_a13_proc_2 >= -2
 c637: u_a11 - u_a13 - 828 y_a13_proc_3 >= -2
 c638: u_a14 - u_a11 - 1153 y_a11_proc_0 >= -3885
 c639: u_a14 - u_a11 - 1027 y_a11_proc_2 >= -3885
 c640: u_a14 - u_a11 - 446 y_a11_proc_3 >= -2590
 c641: u_a14 - u_a11 - 491 y_a11_proc_1 >= -2590
 c642: u_a11 - u_a14 - 918 y_a14_proc_0 >= -1296
 c643: u_a11 - u_a14 - 1190 y_a14_proc_2 >= -1296
 c644: u_a11 - u_a14 - 1127 y_a14_proc_3 >= -1
 c645: u_a11 - u_a14 - 1045 y_a14_proc_1 >= -1
 c646: u_a13 - u_a12 - 883 y_a12_proc_0 >= -2590
 c647: u_a13 - u_a12 - 945 y_a12_proc_2 >= -2590
 c648: u_a13 - u_a12 - 1035 y_a12_proc_3 >= -3885
 c649: u_a12 - u_a13 - 877 y_a13_proc_0 >= -1
 c650: u_a12 - u_a13 - 638 y_a13_proc_2 >= -1
 c651: u_a12 - u_a13 - 828 y_a13_proc_3 >= -1296
 c652: u_a14 - u_a12 - 883 y_a12_proc_0 >= -2591
 c653: u_a14 - u_a12 - 945 y_a12_proc_2 >= -3886
 c654: u_a14 - u_a12 - 1035 y_a12_proc_3 >= -3886
 c655: u_a14 - u_a12 - 1099 y_a12_proc_1 >= -2591
 c656: u_a12 - u_a14 - 918 y_a14_proc_0 >= 0
 c657: u_a12 - u_a14 - 1190 y_a14_proc_2 >= -1295
 c658: u_a12 - u_a14 - 1127 y_a14_proc_3 >= -1295
 c659: u_a12 - u_a14 - 1045 y_a14_proc_1 >= 0
 c660: u_a14 - u_a13 - 877 y_a13_proc_0 >= -3887
 c661: u_a14 - u_a13 - 638 y_a13_proc_2 >= -2592
 c662: u_a14 - u_a13 - 828 y_a13_proc_3 >= -3887
 c663: u_a13 - u_a14 - 918 y_a14_proc_0 >= -1294
 c664: u_a13 - u_a14 - 1190 y_a14_proc_2 >= 1
 c665: u_a13 - u_a14 - 1127 y_a14_proc_3 >= -1294

Bounds
End
